Function: get_partitions took 3.147125244140625e-05 seconds
Function: map_flows_partitions took 5.0067901611328125e-06 seconds
Building model with:
2 devices, 10 partitions and 1 flows
Using license file /home/anup/gurobi.lic
Academic license - for non-commercial use only
Function: MIP.add_frac_mem_var took 0.0003228187561035156 seconds
Function: MIP.add_coverage_constraints took 0.0003254413604736328 seconds
Function: MIP.add_accuracy_constraints took 0.0004398822784423828 seconds
Function: MIP.add_capacity_constraints took 0.0003571510314941406 seconds
Changed value of parameter TimeLimit to 120.0
   Prev: inf  Min: 0.0  Max: inf  Default: inf
Changed value of parameter NonConvex to 2
   Prev: -1  Min: -1  Max: 2  Default: -1
--------------------------------------------------
Starting model update
Model update took: 3.5762786865234375e-05 s
--------------------------------------------------
Starting model optimize
Gurobi Optimizer version 9.0.0 build v9.0.0rc2 (linux64)
Optimize a model with 40 rows, 57 columns and 120 nonzeros
Model fingerprint: 0xa05f699d
Model has 3 quadratic constraints
Model has 3 general constraints
Variable types: 55 continuous, 2 integer (0 binary)
Coefficient statistics:
  Matrix range     [1e-04, 1e+01]
  QMatrix range    [1e+00, 1e+00]
  QLMatrix range   [1e+00, 1e+00]
  Objective range  [1e+00, 1e+00]
  Bounds range     [1e+00, 3e+04]
  RHS range        [1e+00, 2e+01]

---------------------------------------------------------------------------
Multi-objectives: starting optimization with 2 objectives ... 
---------------------------------------------------------------------------

Multi-objectives: applying initial presolve ...
---------------------------------------------------------------------------

Presolve removed 17 rows and 16 columns
Presolve time: 0.00s
Presolved: 35 rows and 42 columns
---------------------------------------------------------------------------

Multi-objectives: optimize objective 1 (ns) ...
---------------------------------------------------------------------------

Presolve removed 18 rows and 23 columns
Presolve time: 0.00s
Presolved: 29 rows, 20 columns, 72 nonzeros
Presolved model has 1 SOS constraint(s)
Presolved model has 3 bilinear constraint(s)
Variable types: 16 continuous, 4 integer (2 binary)

Root relaxation: objective 1.020408e+01, 7 iterations, 0.00 seconds

    Nodes    |    Current Node    |     Objective Bounds      |     Work
 Expl Unexpl |  Obj  Depth IntInf | Incumbent    BestBd   Gap | It/Node Time

     0     0   10.20408    0    1          -   10.20408      -     -    0s
H    0     0                      10.2040816   10.20408  0.00%     -    0s

Explored 1 nodes (7 simplex iterations) in 0.00 seconds
Thread count was 8 (of 8 available processors)

Solution count 1: 10.2041 

Optimal solution found (tolerance 1.00e-04)
Best objective 1.020408163265e+01, best bound 1.020408163265e+01, gap 0.0000%
---------------------------------------------------------------------------

Multi-objectives: optimize objective 2 (res) ...
---------------------------------------------------------------------------


Loaded user MIP start with objective 73.0348

Presolve removed 36 rows and 42 columns
Presolve time: 0.00s
Presolve: All rows and columns removed

Explored 0 nodes (0 simplex iterations) in 0.00 seconds
Thread count was 1 (of 8 available processors)

Solution count 1: 73.0348 

Optimal solution found (tolerance 1.00e-04)
Best objective 7.303483072917e+01, best bound 7.303483072917e+01, gap 0.0000%

---------------------------------------------------------------------------
Multi-objectives: solved in 0.00 seconds, solution count 2

Model optimize took: 0.0034942626953125 seconds
--------------------------------------------------

Solution quality statistics for model Netmon :
  Maximum violation:
    Bound       : 0.00000000e+00
    Constraint  : 0.00000000e+00
    Integrality : 0.00000000e+00

Throughput: 98.0 Mpps, ns per packet: 10.204081632653061
Resources: 73.03483072916667
Used Cores: 7.0, Total CPUS: 1, Switch Memory: 25.671875

Sketch (0) (cm: eps0: 0.3125, del0: 0.05, min_mem: 0.03515625)
Par: 1, Rows: 1
(0.000,0)    (1.000,1)    
Total frac: 1.000
Par: 2, Rows: 1
(1.000,1)    (0.000,0)    
Total frac: 1.000
Par: 3, Rows: 1
(1.000,1)    (0.000,0)    
Total frac: 1.000

Sketch (1) (cm: eps0: 0.00125, del0: 0.05, min_mem: 8.49609375)
Par: 1, Rows: 1
(1.000,1)    (0.000,0)    
Total frac: 1.000
Par: 2, Rows: 1
(0.000,0)    (1.000,1)    
Total frac: 1.000
Par: 3, Rows: 1
(1.000,1)    (0.000,0)    
Total frac: 1.000

Sketch (2) (cm: eps0: 0.625, del0: 0.025, min_mem: 0.01953125)
Par: 1, Rows: 1
(1.000,1)    (0.000,0)    
Total frac: 1.000
Par: 2, Rows: 1
(-0.000,0)    (1.000,1)    
Total frac: 1.000
Par: 3, Rows: 1
(0.000,0)    (1.000,1)    
Total frac: 1.000
Par: 4, Rows: 1
(1.000,1)    (0.000,0)    
Total frac: 1.000

Device (0) CPU_1:
cores_sketch: 0.0, cores_dpdk: 7.0
Rows total: 0.0
Mem total: 0.0
Throughput: 98.0

Device (1) P4_1:
Rows total: 10.0
Mem total: 25.671875
Throughput: 148.0
--------------------------------------------------
Function: MIP.solve took 0.01146697998046875 seconds
Function: solve took 0.011792898178100586 seconds
